Mn O La                                 
   1.00000000000000     
     3.9088966983609255    0.0000000000000000    0.0000000000000000
     0.0000000000000000    3.9088966983609255    0.0000000000000000
     0.0000000000000000    0.0000000000000000    3.9088966983609255
   La   Mn   O 
     1     1     3
Direct
  0.0000000000000000  0.0000000000000000  0.0000000000000000
  0.5000006388000031  0.5000006388000031  0.5000006388000031
  0.5000006388000031  0.5000006388000031  0.0000000000000000
  0.5000006388000031  0.0000000000000000  0.5000006388000031
  0.0000000000000000  0.5000006388000031  0.5000006388000031
 
  0.00000000E+00  0.00000000E+00  0.00000000E+00
  0.00000000E+00  0.00000000E+00  0.00000000E+00
  0.00000000E+00  0.00000000E+00  0.00000000E+00
  0.00000000E+00  0.00000000E+00  0.00000000E+00
  0.00000000E+00  0.00000000E+00  0.00000000E+00
