#= General Settings =#
  PREC = ACC
  ISTART = 0
  ISPIN = 2
  MAGMOM = 2*5.0000 3*0.0000

#= LDA+U Fields =#
 LDAU = .TRUE.
 LDAUPRINT = 1
 LDAUU = 0.0 3.8 0.0
 LDAUJ = 0 0 0
 LDAUL = -1 2 -1

#= Parallelization =#

#= Ionic Relaxation Settings =#
  NSW = 60
  IBRION = 2
  ISIF = 3
  POTIM = 0.5

#= Electronic Relxation Settings =#
  ENCUT = 400
  NELM = 60
  NELMIN = 5
  LREAL = .FALSE.
  EDIFF = 0.0001
  ALGO = FAST

#= Write flags =#
  LCHARG = .TRUE.
  LWAVE = .FALSE.
  LVTOT = .FALSE.

#= DOS =#
  NBANDS = 27
  ISMEAR = 1
  SIGMA = 0.2

#= Uncategorized/OQMD codes  =#
  LDAUUS = 0 3.8 0
  LDAU = .TRUE.
  PSTRESS = 0
  LORBIT = 11
  LDAULS = -1 2 -1
  EPSILON = 1
  LDIPOL = .FALSE.
  IDIPOL = 0
