Mn O La
 1.0
3.939675 0.000000 0.000000
0.000000 3.939675 0.000000
0.000000 0.000000 3.939675
La Mn O
1 1 3
direct
 0.0000000000 0.0000000000 0.0000000000
 0.5000006388 0.5000006388 0.5000006388
 0.5000006388 0.5000006388 0.0000000000
 0.5000006388 0.0000000000 0.5000006388
 0.0000000000 0.5000006388 0.5000006388
