C24 H24 Fe N6 S6, 2(Br4 Fe)             
   1.00000000000000     
    -6.3349860264985027   10.9725176631869523   -0.0000000000000025
   -12.6699720530641162    0.0000000000183804   -0.0000000000000008
    -6.3349860265208777    3.6575058877351183   14.4274744728191511
   C    H    Br   Fe   N    S 
    48    48    16     6    12    12
Direct
  0.1232355558249376  0.3865583225624835  0.4503268163749606
  0.8767644455083887  0.6134416924375141  0.5496731686250275
  0.0398793105709449  0.1232355594916010  0.4503268163749606
  0.9601206897623920  0.8767644491750664  0.5496731686250275
  0.3865583125624826  0.0398793152376049  0.4503268163749606
  0.6134416824375133  0.9601206944290661  0.5496731686250275
  0.1134416744375127  0.3767644411750657  0.0496731926250365
  0.8865583075624859  0.6232355544916042  0.9503268313749725
  0.3767644375083881  0.4601206864290655  0.0496731926250365
  0.6232355508249408  0.5398793102376080  0.9503268313749725
  0.4601206817623984  0.1134416844375135  0.0496731926250365
  0.5398793055709268  0.8865583175624867  0.9503268313749725
  0.2544188028905771  0.3534733041400560  0.3925925471989308
  0.7455811947760859  0.6465267208599426  0.6074074078010689
  0.9995153534371070  0.2544188202239189  0.3925925471989308
  0.0004846765628956  0.7455812121094206  0.6074074078010689
  0.3534732941400481  0.9995153384371022  0.3925925471989308
  0.6465267108599488  0.0004846615628979  0.6074074078010689
  0.1465266921932877  0.2455811934427523  0.1074074638010736
  0.8534732841400543  0.7544188102239181  0.8925925771989263
  0.2455811761094247  0.5004846428962367  0.1074074638010736
  0.7544187928905762  0.4995153284371084  0.8925925771989263
  0.5004846578962344  0.1465267021932885  0.1074074638010736
  0.4995153434371061  0.8534732941400551  0.8925925771989263
  0.4344361823292403  0.2798956949095157  0.2879559342207277
  0.5655637976707438  0.7201043134238219  0.7120440887792849
  0.9977122035405069  0.4344361946625853  0.2879559342207277
  0.0022878087928238  0.5655638100040817  0.7120440887792849
  0.2798956789095214  0.9977121835405053  0.2879559342207277
  0.7201042974238205  0.0022877887928293  0.7120440887792849
  0.2201043124238183  0.0655638250040866  0.2120440437792705
  0.7798956865761781  0.9344362023292562  0.7879559112207151
  0.0655638126707558  0.5022878037928270  0.2120440437792705
  0.9344361899959183  0.4977121912071762  0.7879559112207151
  0.5022878237928216  0.2201043284238196  0.2120440437792705
  0.4977122112071778  0.7798957025761795  0.7879559112207151
  0.4766038105842168  0.3185405361719763  0.3324083001149011
  0.5233961660824551  0.6814594688280133  0.6675917218851007
  0.8724473581288884  0.4766038265842252  0.3324083001149011
  0.1275526542044494  0.5233961820824351  0.6675917218851007
  0.3185405238386455  0.8724473384622166  0.3324083001149011
  0.6814594564946825  0.1275526345377918  0.6675917218851007
  0.1814594701613611  0.0233961957491064  0.1675916808851009
  0.8185405311719796  0.9766038339175662  0.8324082781148993
  0.0233961797491051  0.6275526482044490  0.1675916808851009
  0.9766038179175578  0.3724473457955436  0.8324082781148993
  0.6275526678711137  0.1814594824946848  0.1675916808851009
  0.3724473654622154  0.8185405435053175  0.8324082781148993
  0.0558474257017494  0.4617372107522902  0.4092481280792942
  0.9441525772982402  0.5382627815810388  0.5907518569207224
  0.0731672328000134  0.0558474277017496  0.4092481280792942
  0.9268327768666434  0.9441525792982404  0.5907518569207224
  0.4617372234189508  0.0731672281333463  0.4092481280792942
  0.5382627942477065  0.9268327721999906  0.5907518569207224
  0.0382627862477130  0.4441525712982538  0.0907518809207172
  0.9617372184189612  0.5558474227017598  0.9092481430792776
  0.4441525692982536  0.4268327641999899  0.0907518809207172
  0.5558474207017596  0.5731672231333494  0.9092481430792776
  0.4268327688666640  0.0382627735810453  0.0907518809207172
  0.5731672278000094  0.9617372057523006  0.9092481430792776
  0.1128391551241164  0.4196447447787374  0.5076612213447665
  0.8871608465425469  0.5803552875546022  0.4923387336552192
  0.9598548864190435  0.1128391684574508  0.5076612213447665
  0.0401451135809565  0.8871608598758955  0.4923387336552192
  0.4196447274453955  0.9598549014190483  0.5076612213447665
  0.5803552702212603  0.0401451285809542  0.4923387336552192
  0.0803552602212595  0.3871608498758947  0.9923387636552216
  0.9196447124453978  0.6128391534574460  0.0076612663447808
  0.3871608365425461  0.5401451185809534  0.9923387636552216
  0.6128391401241116  0.4598548864190435  0.0076612663447808
  0.5401451035809557  0.0803552775546014  0.9923387636552216
  0.4598548714190459  0.9196447297787397  0.0076612663447808
  0.0986305896235129  0.3049045109379479  0.4812454941417266
  0.9013694013764899  0.6950955033953760  0.5187544918582796
  0.1152194102968167  0.0986306032901700  0.4812454941417266
  0.8847806020365141  0.9013694150431542  0.5187544918582796
  0.3049045012712840  0.1152194026301458  0.4812454941417266
  0.6950954937287191  0.8847805943698503  0.5187544918582796
  0.1950954853953815  0.4013694067098308  0.0187545168582779
  0.8049044966046240  0.5986305986235101  0.9812455081417204
  0.4013693930431453  0.3847805860365199  0.0187545168582779
  0.5986305849568458  0.6152193979634859  0.9812455081417204
  0.3847805937031837  0.1950954950620455  0.0187545168582779
  0.6152194056301497  0.8049045062712809  0.9812455081417204
  0.5701546094346102  0.3142604385790836  0.3171088885325489
  0.4298453998987240  0.6857395914209187  0.6828910734674624
  0.7984760747870917  0.5701546127679509  0.3171088885325489
  0.2015239525462369  0.4298454032320434  0.6828910734674624
  0.3142604212457560  0.7984760601204096  0.3171088885325489
  0.6857395740875768  0.2015239378795903  0.6828910734674624
  0.1857395577542529  0.9298453868987193  0.1828911224674627
  0.8142604039124072  0.0701545954346232  0.8171089405325388
  0.9298453835653857  0.7015239215462449  0.1828911224674627
  0.0701545921012754  0.2984760427870819  0.8171089405325388
  0.7015239362128985  0.1857395750875877  0.1828911224674627
  0.2984760574537569  0.8142604212457561  0.8171089405325388
  0.0809207223119786  0.7475147383760236  0.3281359863320865
  0.9190792560213493  0.2524852296239809  0.6718640646679355
  0.8434285529799184  0.0809207269786457  0.3281359863320865
  0.1565714500200854  0.9190792606880093  0.6718640646679355
  0.7475147533760284  0.8434285329799167  0.3281359863320865
  0.2524852446239644  0.1565714300200837  0.6718640646679355
  0.7524852582906428  0.4190792743546807  0.1718640236679214
  0.2475147653760222  0.5809207389786467  0.8281359503320764
  0.4190792696880207  0.6565714436867551  0.1718640236679214
  0.5809207343119726  0.3434285449799178  0.8281359503320764
  0.6565714636867497  0.7524852432906523  0.1718640236679214
  0.3434285649799265  0.2475147503760174  0.8281359503320764
  0.9597800556177102  0.9597800356177085  0.1206598631468650
  0.0402199817156263  0.0402199617156175  0.8793400848531308
  0.5402199617156175  0.5402199417156158  0.3793401448531357
  0.4597800432843793  0.4597800232843777  0.6206599001468645
  0.2500000123333308  0.2499999923333291  0.2499999930000030
  0.7499999799999983  0.7500000200000017  0.7500000000000000
  0.9067800954031510  0.9067800754031564  0.2796597437905354
  0.0932199369301744  0.0932199169301798  0.7203402192094651
  0.5932199219301767  0.5932199019301750  0.2203402642094653
  0.4067800780698233  0.4067800580698216  0.7796597957905397
  0.3080050263813768  0.2999984463467595  0.3217133850058123
  0.6919949959519549  0.7000015759865721  0.6782865999941901
  0.0702831545993680  0.3080050090480349  0.3217133850058123
  0.9297168554006329  0.6919949786186201  0.6782865999941901
  0.2999984290134248  0.0702831495993782  0.3217133850058123
  0.7000015586532444  0.9297168504006218  0.6782865999941901
  0.2000015499865699  0.1919949699519527  0.1782866259941922
  0.7999984240134279  0.8080050040480380  0.8217134000058099
  0.1919949872852804  0.4297168417339615  0.1782866259941922
  0.8080050213813799  0.5702831445993813  0.8217134000058099
  0.4297168467339583  0.2000015673199118  0.1782866259941922
  0.5702831495993711  0.7999984413467556  0.8217134000058099
  0.3559631238956349  0.3818052340888379  0.4188030139028875
  0.6440368511043593  0.6181947309111699  0.5811970310971127
  0.8434286084459750  0.3559631338956357  0.4188030139028875
  0.1565713668873492  0.6440368611043601  0.5811970310971127
  0.3818052540888325  0.8434286181126389  0.4188030139028875
  0.6181947509111574  0.1565713765540273  0.5811970310971127
  0.1181947629111796  0.1440368731043684  0.0811969950971168
  0.8818052740888198  0.8559631538956376  0.9188029539028896
  0.1440368631043533  0.6565713885540283  0.0811969950971168
  0.8559631438956368  0.3434286381126405  0.9188029539028896
  0.6565713788873502  0.1181947429111709  0.0811969950971168
  0.3434286284459908  0.8818052540888395  0.9188029539028896
 
  0.00000000E+00  0.00000000E+00  0.00000000E+00
  0.00000000E+00  0.00000000E+00  0.00000000E+00
  0.00000000E+00  0.00000000E+00  0.00000000E+00
  0.00000000E+00  0.00000000E+00  0.00000000E+00
  0.00000000E+00  0.00000000E+00  0.00000000E+00
  0.00000000E+00  0.00000000E+00  0.00000000E+00
  0.00000000E+00  0.00000000E+00  0.00000000E+00
  0.00000000E+00  0.00000000E+00  0.00000000E+00
  0.00000000E+00  0.00000000E+00  0.00000000E+00
  0.00000000E+00  0.00000000E+00  0.00000000E+00
  0.00000000E+00  0.00000000E+00  0.00000000E+00
  0.00000000E+00  0.00000000E+00  0.00000000E+00
  0.00000000E+00  0.00000000E+00  0.00000000E+00
  0.00000000E+00  0.00000000E+00  0.00000000E+00
  0.00000000E+00  0.00000000E+00  0.00000000E+00
  0.00000000E+00  0.00000000E+00  0.00000000E+00
  0.00000000E+00  0.00000000E+00  0.00000000E+00
  0.00000000E+00  0.00000000E+00  0.00000000E+00
  0.00000000E+00  0.00000000E+00  0.00000000E+00
  0.00000000E+00  0.00000000E+00  0.00000000E+00
  0.00000000E+00  0.00000000E+00  0.00000000E+00
  0.00000000E+00  0.00000000E+00  0.00000000E+00
  0.00000000E+00  0.00000000E+00  0.00000000E+00
  0.00000000E+00  0.00000000E+00  0.00000000E+00
  0.00000000E+00  0.00000000E+00  0.00000000E+00
  0.00000000E+00  0.00000000E+00  0.00000000E+00
  0.00000000E+00  0.00000000E+00  0.00000000E+00
  0.00000000E+00  0.00000000E+00  0.00000000E+00
  0.00000000E+00  0.00000000E+00  0.00000000E+00
  0.00000000E+00  0.00000000E+00  0.00000000E+00
  0.00000000E+00  0.00000000E+00  0.00000000E+00
  0.00000000E+00  0.00000000E+00  0.00000000E+00
  0.00000000E+00  0.00000000E+00  0.00000000E+00
  0.00000000E+00  0.00000000E+00  0.00000000E+00
  0.00000000E+00  0.00000000E+00  0.00000000E+00
  0.00000000E+00  0.00000000E+00  0.00000000E+00
  0.00000000E+00  0.00000000E+00  0.00000000E+00
  0.00000000E+00  0.00000000E+00  0.00000000E+00
  0.00000000E+00  0.00000000E+00  0.00000000E+00
  0.00000000E+00  0.00000000E+00  0.00000000E+00
  0.00000000E+00  0.00000000E+00  0.00000000E+00
  0.00000000E+00  0.00000000E+00  0.00000000E+00
  0.00000000E+00  0.00000000E+00  0.00000000E+00
  0.00000000E+00  0.00000000E+00  0.00000000E+00
  0.00000000E+00  0.00000000E+00  0.00000000E+00
  0.00000000E+00  0.00000000E+00  0.00000000E+00
  0.00000000E+00  0.00000000E+00  0.00000000E+00
  0.00000000E+00  0.00000000E+00  0.00000000E+00
  0.00000000E+00  0.00000000E+00  0.00000000E+00
  0.00000000E+00  0.00000000E+00  0.00000000E+00
  0.00000000E+00  0.00000000E+00  0.00000000E+00
  0.00000000E+00  0.00000000E+00  0.00000000E+00
  0.00000000E+00  0.00000000E+00  0.00000000E+00
  0.00000000E+00  0.00000000E+00  0.00000000E+00
  0.00000000E+00  0.00000000E+00  0.00000000E+00
  0.00000000E+00  0.00000000E+00  0.00000000E+00
  0.00000000E+00  0.00000000E+00  0.00000000E+00
  0.00000000E+00  0.00000000E+00  0.00000000E+00
  0.00000000E+00  0.00000000E+00  0.00000000E+00
  0.00000000E+00  0.00000000E+00  0.00000000E+00
  0.00000000E+00  0.00000000E+00  0.00000000E+00
  0.00000000E+00  0.00000000E+00  0.00000000E+00
  0.00000000E+00  0.00000000E+00  0.00000000E+00
  0.00000000E+00  0.00000000E+00  0.00000000E+00
  0.00000000E+00  0.00000000E+00  0.00000000E+00
  0.00000000E+00  0.00000000E+00  0.00000000E+00
  0.00000000E+00  0.00000000E+00  0.00000000E+00
  0.00000000E+00  0.00000000E+00  0.00000000E+00
  0.00000000E+00  0.00000000E+00  0.00000000E+00
  0.00000000E+00  0.00000000E+00  0.00000000E+00
  0.00000000E+00  0.00000000E+00  0.00000000E+00
  0.00000000E+00  0.00000000E+00  0.00000000E+00
  0.00000000E+00  0.00000000E+00  0.00000000E+00
  0.00000000E+00  0.00000000E+00  0.00000000E+00
  0.00000000E+00  0.00000000E+00  0.00000000E+00
  0.00000000E+00  0.00000000E+00  0.00000000E+00
  0.00000000E+00  0.00000000E+00  0.00000000E+00
  0.00000000E+00  0.00000000E+00  0.00000000E+00
  0.00000000E+00  0.00000000E+00  0.00000000E+00
  0.00000000E+00  0.00000000E+00  0.00000000E+00
  0.00000000E+00  0.00000000E+00  0.00000000E+00
  0.00000000E+00  0.00000000E+00  0.00000000E+00
  0.00000000E+00  0.00000000E+00  0.00000000E+00
  0.00000000E+00  0.00000000E+00  0.00000000E+00
  0.00000000E+00  0.00000000E+00  0.00000000E+00
  0.00000000E+00  0.00000000E+00  0.00000000E+00
  0.00000000E+00  0.00000000E+00  0.00000000E+00
  0.00000000E+00  0.00000000E+00  0.00000000E+00
  0.00000000E+00  0.00000000E+00  0.00000000E+00
  0.00000000E+00  0.00000000E+00  0.00000000E+00
  0.00000000E+00  0.00000000E+00  0.00000000E+00
  0.00000000E+00  0.00000000E+00  0.00000000E+00
  0.00000000E+00  0.00000000E+00  0.00000000E+00
  0.00000000E+00  0.00000000E+00  0.00000000E+00
  0.00000000E+00  0.00000000E+00  0.00000000E+00
  0.00000000E+00  0.00000000E+00  0.00000000E+00
  0.00000000E+00  0.00000000E+00  0.00000000E+00
  0.00000000E+00  0.00000000E+00  0.00000000E+00
  0.00000000E+00  0.00000000E+00  0.00000000E+00
  0.00000000E+00  0.00000000E+00  0.00000000E+00
  0.00000000E+00  0.00000000E+00  0.00000000E+00
  0.00000000E+00  0.00000000E+00  0.00000000E+00
  0.00000000E+00  0.00000000E+00  0.00000000E+00
  0.00000000E+00  0.00000000E+00  0.00000000E+00
  0.00000000E+00  0.00000000E+00  0.00000000E+00
  0.00000000E+00  0.00000000E+00  0.00000000E+00
  0.00000000E+00  0.00000000E+00  0.00000000E+00
  0.00000000E+00  0.00000000E+00  0.00000000E+00
  0.00000000E+00  0.00000000E+00  0.00000000E+00
  0.00000000E+00  0.00000000E+00  0.00000000E+00
  0.00000000E+00  0.00000000E+00  0.00000000E+00
  0.00000000E+00  0.00000000E+00  0.00000000E+00
  0.00000000E+00  0.00000000E+00  0.00000000E+00
  0.00000000E+00  0.00000000E+00  0.00000000E+00
  0.00000000E+00  0.00000000E+00  0.00000000E+00
  0.00000000E+00  0.00000000E+00  0.00000000E+00
  0.00000000E+00  0.00000000E+00  0.00000000E+00
  0.00000000E+00  0.00000000E+00  0.00000000E+00
  0.00000000E+00  0.00000000E+00  0.00000000E+00
  0.00000000E+00  0.00000000E+00  0.00000000E+00
  0.00000000E+00  0.00000000E+00  0.00000000E+00
  0.00000000E+00  0.00000000E+00  0.00000000E+00
  0.00000000E+00  0.00000000E+00  0.00000000E+00
  0.00000000E+00  0.00000000E+00  0.00000000E+00
  0.00000000E+00  0.00000000E+00  0.00000000E+00
  0.00000000E+00  0.00000000E+00  0.00000000E+00
  0.00000000E+00  0.00000000E+00  0.00000000E+00
  0.00000000E+00  0.00000000E+00  0.00000000E+00
  0.00000000E+00  0.00000000E+00  0.00000000E+00
  0.00000000E+00  0.00000000E+00  0.00000000E+00
  0.00000000E+00  0.00000000E+00  0.00000000E+00
  0.00000000E+00  0.00000000E+00  0.00000000E+00
  0.00000000E+00  0.00000000E+00  0.00000000E+00
  0.00000000E+00  0.00000000E+00  0.00000000E+00
  0.00000000E+00  0.00000000E+00  0.00000000E+00
  0.00000000E+00  0.00000000E+00  0.00000000E+00
  0.00000000E+00  0.00000000E+00  0.00000000E+00
  0.00000000E+00  0.00000000E+00  0.00000000E+00
  0.00000000E+00  0.00000000E+00  0.00000000E+00
  0.00000000E+00  0.00000000E+00  0.00000000E+00
  0.00000000E+00  0.00000000E+00  0.00000000E+00
  0.00000000E+00  0.00000000E+00  0.00000000E+00
