C24 H24 Fe N6 S6, 2(Br4 Fe)             
   1.00000000000000     
    -6.3351658997582065   10.9728292128116731   -0.0000000000000025
   -12.6703317995835665    0.0000000000183584   -0.0000000000000008
    -6.3351658997805957    3.6576097376100183   14.4273004959574518
   C    H    Br   Fe   N    S 
    48    48    16     6    12    12
Direct
  0.1232313211513539  0.3865623832863990  0.4503280676818237
  0.8767686801819726  0.6134376317135987  0.5496719173181641
  0.0398782332137570  0.1232313248180174  0.4503280676818237
  0.9601217671195803  0.8767686838486503  0.5496719173181641
  0.3865623732863981  0.0398782378804170  0.4503280676818237
  0.6134376217135978  0.9601217717862545  0.5496719173181641
  0.1134376137135972  0.3767686758486494  0.0496719413181733
  0.8865623682864013  0.6232313198180203  0.9503280826818359
  0.3767686721819718  0.4601217637862532  0.0496719413181733
  0.6232313161513569  0.5398782328804197  0.9503280826818359
  0.4601217591195861  0.1134376237135981  0.0496719413181733
  0.5398782282137384  0.8865623782864022  0.9503280826818359
  0.2544097701373031  0.3534805198693253  0.3925933623495539
  0.7455902275293599  0.6465195051306735  0.6074065926504458
  0.9995163553104960  0.2544097874706450  0.3925933623495539
  0.0004836746895067  0.7455902448626947  0.6074065926504458
  0.3534805098693173  0.9995163403104912  0.3925933623495539
  0.6465194951306797  0.0004836596895091  0.6074065926504458
  0.1465194764640183  0.2455902261960264  0.1074066486504506
  0.8534804998693234  0.7544097774706441  0.8925933923495494
  0.2455902088626987  0.5004836410228477  0.1074066486504506
  0.7544097601373022  0.4995163303104971  0.8925933923495494
  0.5004836560228454  0.1465194864640192  0.1074066486504506
  0.4995163453104948  0.8534805098693242  0.8925933923495494
  0.4344419682196058  0.2798919267512865  0.2879508858037583
  0.5655580117803779  0.7201080815820443  0.7120491371962544
  0.9977152342253331  0.4344419805529509  0.2879508858037583
  0.0022847781079978  0.5655580241137157  0.7120491371962544
  0.2798919107512923  0.9977152142253315  0.2879508858037583
  0.7201080655820430  0.0022847581080032  0.7120491371962544
  0.2201080805820405  0.0655580391137209  0.2120490921962401
  0.7798919184179557  0.9344419882196222  0.7879508628037456
  0.0655580267803901  0.5022847731080008  0.2120490921962401
  0.9344419758862843  0.4977152218920023  0.7879508628037456
  0.5022847931079953  0.2201080965820418  0.2120490921962401
  0.4977152418920039  0.7798919344179570  0.7879508628037456
  0.4765978039942119  0.3185475152727530  0.3324085253511205
  0.5234021726724606  0.6814524897272370  0.6675914966488813
  0.8724461603818974  0.4765978199942202  0.3324085253511205
  0.1275538519514405  0.5234021886724406  0.6675914966488813
  0.3185475029394222  0.8724461407152255  0.3324085253511205
  0.6814524773939062  0.1275538322847828  0.6675914966488813
  0.1814524910605844  0.0234022023391115  0.1675914556488814
  0.8185475102727559  0.9765978273275607  0.8324085033511187
  0.0234021863391102  0.6275538459514400  0.1675914556488814
  0.9765978113275523  0.3724461480485525  0.8324085033511187
  0.6275538656181048  0.1814525033939081  0.1675914556488814
  0.3724461677152243  0.8185475226060938  0.8324085033511187
  0.0558475349551626  0.4617410456874181  0.4092481060474543
  0.9441524680448271  0.5382589466459115  0.5907518789525623
  0.0731633106433124  0.0558475369551627  0.4092481060474543
  0.9268366990233441  0.9441524700448273  0.5907518789525623
  0.4617410583540787  0.0731633059766453  0.4092481060474543
  0.5382589593125792  0.9268366943566912  0.5907518789525623
  0.0382589513125853  0.4441524620448408  0.0907519029525570
  0.9617410533540885  0.5558475319551729  0.9092481210474377
  0.4441524600448406  0.4268366863566910  0.0907519029525570
  0.5558475299551727  0.5731633009766488  0.9092481210474377
  0.4268366910233652  0.0382589386459176  0.0907519029525570
  0.5731633056433088  0.9617410406874279  0.9092481210474377
  0.1128392624574444  0.4196470202886829  0.5076586939687880
  0.8871607392092189  0.5803530120446562  0.4923412610311977
  0.9598550309517481  0.1128392757907789  0.5076586939687880
  0.0401449690482518  0.8871607525425675  0.4923412610311977
  0.4196470029553410  0.9598550459517529  0.5076586939687880
  0.5803529947113143  0.0401449840482494  0.4923412610311977
  0.0803529847113139  0.3871607425425665  0.9923412910312001
  0.9196469879553438  0.6128392607907740  0.0076587389688024
  0.3871607292092179  0.5401449740482488  0.9923412910312001
  0.6128392474574396  0.4598550309517484  0.0076587389688024
  0.5401449590482511  0.0803530020446557  0.9923412910312001
  0.4598550159517507  0.9196470052886857  0.0076587389688024
  0.0986319573701942  0.3049087981011436  0.4812441833097521
  0.9013680336298087  0.6950912162321801  0.5187558026902475
  0.1152150662189071  0.0986319710368513  0.4812441833097521
  0.8847849461144236  0.9013680472964729  0.5187558026902475
  0.3049087884344797  0.1152150585522362  0.4812441833097521
  0.6950912065655233  0.8847849384477598  0.5187558026902475
  0.1950911982321858  0.4013680389631496  0.0187558276902524
  0.8049087837678199  0.5986319663701913  0.9812441973097525
  0.4013680252964640  0.3847849301144293  0.0187558276902524
  0.5986319527035271  0.6152150538855764  0.9812441973097525
  0.3847849377810931  0.1950912078988498  0.0187558276902524
  0.6152150615522402  0.8049087934344767  0.9812441973097525
  0.5701509119354193  0.3142703442146579  0.3171091801033366
  0.4298490973979148  0.6857296857853449  0.6828907818966745
  0.7984695750799202  0.5701509152687601  0.3171091801033366
  0.2015304522534081  0.4298491007312342  0.6828907818966745
  0.3142703268813303  0.7984695604132382  0.3171091801033366
  0.6857296684520030  0.2015304375867615  0.6828907818966745
  0.1857296521186787  0.9298490843979101  0.1828908308966750
  0.8142703095479810  0.0701508979354325  0.8171092321033266
  0.9298490810645765  0.7015304212534164  0.1828908308966750
  0.0701508946020847  0.2984695430799105  0.8171092321033266
  0.7015304359200700  0.1857296694520135  0.1828908308966750
  0.2984695577465854  0.8142703268813299  0.8171092321033266
  0.0809125084767358  0.7475330964170124  0.3281385250517576
  0.9190874698565924  0.2524668715829917  0.6718615259482643
  0.8434158700545007  0.0809125131434029  0.3281385250517576
  0.1565841329455028  0.9190874745232523  0.6718615259482643
  0.7475331114170172  0.8434158500544990  0.3281385250517576
  0.2524668865829752  0.1565841129455011  0.6718615259482643
  0.7524669002496538  0.4190874881899235  0.1718614849482502
  0.2475331234170114  0.5809125251434036  0.8281384890517476
  0.4190874835232636  0.6565841266121728  0.1718614849482502
  0.5809125204767294  0.3434158620545003  0.8281384890517476
  0.6565841466121674  0.7524668852496634  0.1718614849482502
  0.3434158820545090  0.2475331084170066  0.8281384890517476
  0.9597816412041396  0.9597816212041379  0.1206551063875830
  0.0402183961291966  0.0402183761291878  0.8793448416124127
  0.5402183761291881  0.5402183561291864  0.3793449016124178
  0.4597816288708091  0.4597816088708074  0.6206551433875825
  0.2500000123333308  0.2499999923333291  0.2499999930000030
  0.7499999799999983  0.7500000200000017  0.7500000000000000
  0.9067762365023152  0.9067762165023207  0.2796713204930363
  0.0932237958310103  0.0932237758310158  0.7203286425069642
  0.5932237808310125  0.5932237608310108  0.2203286875069644
  0.4067762191689873  0.4067761991689857  0.7796713724930406
  0.3079979127014041  0.3000012771366241  0.3217168900831189
  0.6920021096319277  0.6999987451967078  0.6782830949168837
  0.0702839324121767  0.3079978953680622  0.3217168900831189
  0.9297160775878243  0.6920020922985929  0.6782830949168837
  0.3000012598032893  0.0702839274121869  0.3217168900831189
  0.6999987278633801  0.9297160725878132  0.6782830949168837
  0.1999987191967054  0.1920020836319254  0.1782831209168855
  0.8000012548032922  0.8079978903680652  0.8217169050831163
  0.1920021009652531  0.4297160639211528  0.1782831209168855
  0.8079979077014071  0.5702839224121899  0.8217169050831163
  0.4297160689211497  0.1999987365300473  0.1782831209168855
  0.5702839274121797  0.8000012721366199  0.8217169050831163
  0.3559641601550432  0.3818112907723012  0.4188010782916822
  0.6440358148449514  0.6181886742277066  0.5811989667083181
  0.8434234511143159  0.3559641701550370  0.4188010782916822
  0.1565765242190084  0.6440358248449523  0.5811989667083181
  0.3818113107722957  0.8434234607809799  0.4188010782916822
  0.6181886942276941  0.1565765338856866  0.5811989667083181
  0.1181887062277163  0.1440358368449672  0.0811989307083221
  0.8818113307722831  0.8559641901550454  0.9188010182916843
  0.1440358268449521  0.6565765458856874  0.0811989307083221
  0.8559641801550446  0.3434234807809813  0.9188010182916843
  0.6565765362190092  0.1181886862277076  0.0811989307083221
  0.3434234711143316  0.8818113107723028  0.9188010182916843
 
  0.00000000E+00  0.00000000E+00  0.00000000E+00
  0.00000000E+00  0.00000000E+00  0.00000000E+00
  0.00000000E+00  0.00000000E+00  0.00000000E+00
  0.00000000E+00  0.00000000E+00  0.00000000E+00
  0.00000000E+00  0.00000000E+00  0.00000000E+00
  0.00000000E+00  0.00000000E+00  0.00000000E+00
  0.00000000E+00  0.00000000E+00  0.00000000E+00
  0.00000000E+00  0.00000000E+00  0.00000000E+00
  0.00000000E+00  0.00000000E+00  0.00000000E+00
  0.00000000E+00  0.00000000E+00  0.00000000E+00
  0.00000000E+00  0.00000000E+00  0.00000000E+00
  0.00000000E+00  0.00000000E+00  0.00000000E+00
  0.00000000E+00  0.00000000E+00  0.00000000E+00
  0.00000000E+00  0.00000000E+00  0.00000000E+00
  0.00000000E+00  0.00000000E+00  0.00000000E+00
  0.00000000E+00  0.00000000E+00  0.00000000E+00
  0.00000000E+00  0.00000000E+00  0.00000000E+00
  0.00000000E+00  0.00000000E+00  0.00000000E+00
  0.00000000E+00  0.00000000E+00  0.00000000E+00
  0.00000000E+00  0.00000000E+00  0.00000000E+00
  0.00000000E+00  0.00000000E+00  0.00000000E+00
  0.00000000E+00  0.00000000E+00  0.00000000E+00
  0.00000000E+00  0.00000000E+00  0.00000000E+00
  0.00000000E+00  0.00000000E+00  0.00000000E+00
  0.00000000E+00  0.00000000E+00  0.00000000E+00
  0.00000000E+00  0.00000000E+00  0.00000000E+00
  0.00000000E+00  0.00000000E+00  0.00000000E+00
  0.00000000E+00  0.00000000E+00  0.00000000E+00
  0.00000000E+00  0.00000000E+00  0.00000000E+00
  0.00000000E+00  0.00000000E+00  0.00000000E+00
  0.00000000E+00  0.00000000E+00  0.00000000E+00
  0.00000000E+00  0.00000000E+00  0.00000000E+00
  0.00000000E+00  0.00000000E+00  0.00000000E+00
  0.00000000E+00  0.00000000E+00  0.00000000E+00
  0.00000000E+00  0.00000000E+00  0.00000000E+00
  0.00000000E+00  0.00000000E+00  0.00000000E+00
  0.00000000E+00  0.00000000E+00  0.00000000E+00
  0.00000000E+00  0.00000000E+00  0.00000000E+00
  0.00000000E+00  0.00000000E+00  0.00000000E+00
  0.00000000E+00  0.00000000E+00  0.00000000E+00
  0.00000000E+00  0.00000000E+00  0.00000000E+00
  0.00000000E+00  0.00000000E+00  0.00000000E+00
  0.00000000E+00  0.00000000E+00  0.00000000E+00
  0.00000000E+00  0.00000000E+00  0.00000000E+00
  0.00000000E+00  0.00000000E+00  0.00000000E+00
  0.00000000E+00  0.00000000E+00  0.00000000E+00
  0.00000000E+00  0.00000000E+00  0.00000000E+00
  0.00000000E+00  0.00000000E+00  0.00000000E+00
  0.00000000E+00  0.00000000E+00  0.00000000E+00
  0.00000000E+00  0.00000000E+00  0.00000000E+00
  0.00000000E+00  0.00000000E+00  0.00000000E+00
  0.00000000E+00  0.00000000E+00  0.00000000E+00
  0.00000000E+00  0.00000000E+00  0.00000000E+00
  0.00000000E+00  0.00000000E+00  0.00000000E+00
  0.00000000E+00  0.00000000E+00  0.00000000E+00
  0.00000000E+00  0.00000000E+00  0.00000000E+00
  0.00000000E+00  0.00000000E+00  0.00000000E+00
  0.00000000E+00  0.00000000E+00  0.00000000E+00
  0.00000000E+00  0.00000000E+00  0.00000000E+00
  0.00000000E+00  0.00000000E+00  0.00000000E+00
  0.00000000E+00  0.00000000E+00  0.00000000E+00
  0.00000000E+00  0.00000000E+00  0.00000000E+00
  0.00000000E+00  0.00000000E+00  0.00000000E+00
  0.00000000E+00  0.00000000E+00  0.00000000E+00
  0.00000000E+00  0.00000000E+00  0.00000000E+00
  0.00000000E+00  0.00000000E+00  0.00000000E+00
  0.00000000E+00  0.00000000E+00  0.00000000E+00
  0.00000000E+00  0.00000000E+00  0.00000000E+00
  0.00000000E+00  0.00000000E+00  0.00000000E+00
  0.00000000E+00  0.00000000E+00  0.00000000E+00
  0.00000000E+00  0.00000000E+00  0.00000000E+00
  0.00000000E+00  0.00000000E+00  0.00000000E+00
  0.00000000E+00  0.00000000E+00  0.00000000E+00
  0.00000000E+00  0.00000000E+00  0.00000000E+00
  0.00000000E+00  0.00000000E+00  0.00000000E+00
  0.00000000E+00  0.00000000E+00  0.00000000E+00
  0.00000000E+00  0.00000000E+00  0.00000000E+00
  0.00000000E+00  0.00000000E+00  0.00000000E+00
  0.00000000E+00  0.00000000E+00  0.00000000E+00
  0.00000000E+00  0.00000000E+00  0.00000000E+00
  0.00000000E+00  0.00000000E+00  0.00000000E+00
  0.00000000E+00  0.00000000E+00  0.00000000E+00
  0.00000000E+00  0.00000000E+00  0.00000000E+00
  0.00000000E+00  0.00000000E+00  0.00000000E+00
  0.00000000E+00  0.00000000E+00  0.00000000E+00
  0.00000000E+00  0.00000000E+00  0.00000000E+00
  0.00000000E+00  0.00000000E+00  0.00000000E+00
  0.00000000E+00  0.00000000E+00  0.00000000E+00
  0.00000000E+00  0.00000000E+00  0.00000000E+00
  0.00000000E+00  0.00000000E+00  0.00000000E+00
  0.00000000E+00  0.00000000E+00  0.00000000E+00
  0.00000000E+00  0.00000000E+00  0.00000000E+00
  0.00000000E+00  0.00000000E+00  0.00000000E+00
  0.00000000E+00  0.00000000E+00  0.00000000E+00
  0.00000000E+00  0.00000000E+00  0.00000000E+00
  0.00000000E+00  0.00000000E+00  0.00000000E+00
  0.00000000E+00  0.00000000E+00  0.00000000E+00
  0.00000000E+00  0.00000000E+00  0.00000000E+00
  0.00000000E+00  0.00000000E+00  0.00000000E+00
  0.00000000E+00  0.00000000E+00  0.00000000E+00
  0.00000000E+00  0.00000000E+00  0.00000000E+00
  0.00000000E+00  0.00000000E+00  0.00000000E+00
  0.00000000E+00  0.00000000E+00  0.00000000E+00
  0.00000000E+00  0.00000000E+00  0.00000000E+00
  0.00000000E+00  0.00000000E+00  0.00000000E+00
  0.00000000E+00  0.00000000E+00  0.00000000E+00
  0.00000000E+00  0.00000000E+00  0.00000000E+00
  0.00000000E+00  0.00000000E+00  0.00000000E+00
  0.00000000E+00  0.00000000E+00  0.00000000E+00
  0.00000000E+00  0.00000000E+00  0.00000000E+00
  0.00000000E+00  0.00000000E+00  0.00000000E+00
  0.00000000E+00  0.00000000E+00  0.00000000E+00
  0.00000000E+00  0.00000000E+00  0.00000000E+00
  0.00000000E+00  0.00000000E+00  0.00000000E+00
  0.00000000E+00  0.00000000E+00  0.00000000E+00
  0.00000000E+00  0.00000000E+00  0.00000000E+00
  0.00000000E+00  0.00000000E+00  0.00000000E+00
  0.00000000E+00  0.00000000E+00  0.00000000E+00
  0.00000000E+00  0.00000000E+00  0.00000000E+00
  0.00000000E+00  0.00000000E+00  0.00000000E+00
  0.00000000E+00  0.00000000E+00  0.00000000E+00
  0.00000000E+00  0.00000000E+00  0.00000000E+00
  0.00000000E+00  0.00000000E+00  0.00000000E+00
  0.00000000E+00  0.00000000E+00  0.00000000E+00
  0.00000000E+00  0.00000000E+00  0.00000000E+00
  0.00000000E+00  0.00000000E+00  0.00000000E+00
  0.00000000E+00  0.00000000E+00  0.00000000E+00
  0.00000000E+00  0.00000000E+00  0.00000000E+00
  0.00000000E+00  0.00000000E+00  0.00000000E+00
  0.00000000E+00  0.00000000E+00  0.00000000E+00
  0.00000000E+00  0.00000000E+00  0.00000000E+00
  0.00000000E+00  0.00000000E+00  0.00000000E+00
  0.00000000E+00  0.00000000E+00  0.00000000E+00
  0.00000000E+00  0.00000000E+00  0.00000000E+00
  0.00000000E+00  0.00000000E+00  0.00000000E+00
  0.00000000E+00  0.00000000E+00  0.00000000E+00
  0.00000000E+00  0.00000000E+00  0.00000000E+00
  0.00000000E+00  0.00000000E+00  0.00000000E+00
  0.00000000E+00  0.00000000E+00  0.00000000E+00
  0.00000000E+00  0.00000000E+00  0.00000000E+00
  0.00000000E+00  0.00000000E+00  0.00000000E+00
  0.00000000E+00  0.00000000E+00  0.00000000E+00
