C24 H24 Fe N6 S6, 2(Br4 Fe)             
   1.00000000000000     
    -6.3322866802907170   10.9678422584075008   -0.0000000000000023
   -12.6645733606498059    0.0000000000176311   -0.0000000000000007
    -6.3322866803135138    3.6559474194750519   14.4184713309349828
   C    H    Br   Fe   N    S 
    48    48    16     6    12    12
Direct
  0.1230794167661877  0.3866678075031902  0.4504037734996754
  0.8769205845671386  0.6133322074968082  0.5495962115003137
  0.0398490075642841  0.1230794204328553  0.4504037734996754
  0.9601509927690527  0.8769205882338121  0.5495962115003137
  0.3866677975031864  0.0398490122309439  0.4504037734996754
  0.6133321974968107  0.9601509974357266  0.5495962115003137
  0.1133321894968070  0.3769205802338114  0.0495962355003222
  0.8866677925031913  0.6230794154328583  0.9504037884996863
  0.3769205765671373  0.4601509894357272  0.0495962355003222
  0.6230794117661912  0.5398490072309468  0.9504037884996863
  0.4601509847690551  0.1133321994968066  0.0495962355003222
  0.5398490025642706  0.8866678025031932  0.9504037884996863
  0.2543428420356895  0.3535615864769610  0.3926496686362662
  0.7456571556309735  0.6464384385230382  0.6073502863637334
 -0.0005540894822430  0.2543428593690321  0.3926496686362662
  0.0005541194822454  0.7456571729643076  0.6073502863637334
  0.3535615764769580 -0.0005541044822505  0.3926496686362662
  0.6464384285230389  0.0005541044822501  0.6073502863637334
  0.1464384098563789  0.2456571542976393  0.1073503423637384
  0.8535615664769628  0.7543428493690320  0.8926496986362618
  0.2456571369643104  0.5005540858155894  0.1073503423637384
  0.7543428320356905  0.4994458855177554  0.8926496986362618
  0.5005541008155859  0.1464384198563771  0.1073503423637384
  0.4994459005177546  0.8535615764769596  0.8926496986362618
  0.4344509595873268  0.2799674620147402  0.2879313271355436
  0.5655490204126643  0.7200325463185904  0.7120686958644680
 -0.0023497337376212  0.4344509719206694  0.2879313271355436
  0.0023497460709515  0.5655490327459974  0.7120686958644680
  0.2799674460147472 -0.0023497537376266  0.2879313271355436
  0.7200325303185882  0.0023497260709612  0.7120686958644680
  0.2200325453185898  0.0655490477460021  0.2120686508644544
  0.7799674536814057  0.9344509795873408  0.7879313041355320
  0.0655490354126735  0.5023497410709582  0.2120686508644544
  0.9344509672540005  0.4976502539290447  0.7879313041355320
  0.5023497610709552  0.2200325613185887  0.2120686508644544
  0.4976502739290444  0.7799674696814102  0.7879313041355320
  0.4766608858131758  0.3187304678503163  0.3323115946442063
  0.5233390908534959  0.6812695371496739  0.6676884273557961
  0.8722970566922913  0.4766609018131834  0.3323115946442063
  0.1277029556410464  0.5233391068534783  0.6676884273557961
  0.3187304555169858  0.8722970370256142  0.3323115946442063
  0.6812695248163421  0.1277029359743874  0.6676884273557961
  0.1812695384830196  0.0233391205201475  0.1676883863557958
  0.8187304628503210  0.9766609091465245  0.8323115726442039
  0.0233391045201488  0.6277029496410513  0.1676883863557958
  0.9766608931465133  0.3722970443589480  0.8323115726442039
  0.6277029693077093  0.1812695508163464  0.1676883863557958
  0.3722970640256193  0.8187304751836563  0.8323115726442039
  0.0557306783147181  0.4618590620917391  0.4092333520810459
  0.9442693246852715  0.5381409302415910  0.5907666329189708
  0.0731769048458421  0.0557306803147139  0.4092333520810459
  0.9268231048208152  0.9442693266852763  0.5907666329189708
  0.4618590747584019  0.0731769001791748  0.4092333520810459
  0.5381409429082555  0.9268231001541560  0.5907666329189708
  0.0381409349082659  0.4442693186852890  0.0907666569189654
  0.9618590697584082  0.5557306753147242  0.9092333670810292
  0.4442693166852836  0.4268230921541553  0.0907666569189654
  0.5557306733147295  0.5731768951791835  0.9092333670810292
  0.4268230968208326  0.0381409222415961  0.0907666569189654
  0.5731768998458402  0.9618590570917493  0.9092333670810292
  0.1126279633536989  0.4197453236071544  0.5077899537586006
  0.8873720383129643  0.5802547087261847  0.4922100012413846
  0.9598367669472054  0.1126279766870373  0.5077899537586006
  0.0401632330527942  0.8873720516463091  0.4922100012413846
  0.4197453062738091  0.9598367819472098  0.5077899537586006
  0.5802546913928464  0.0401632480527925  0.4922100012413846
  0.0802546813928435  0.3873720416463080 -0.0077899687586128
  0.9197452912738140  0.6126279616870326  0.0077899987586152
  0.3873720283129622  0.5401632380527932 -0.0077899687586128
  0.6126279483536949  0.4598367669472043  0.0077899987586152
  0.5401632230527970  0.0802546987261834 -0.0077899687586128
  0.4598367519472050  0.9197453086071573  0.0077899987586152
  0.0984784544078287  0.3049671981429406  0.4813016814153230
  0.9015215365921745  0.6950328161903840  0.5186983045846756
  0.1152526710339064  0.0984784680744819  0.4813016814153230
  0.8847473412994243  0.9015215502588423  0.5186983045846756
  0.3049671884762752  0.1152526633672381  0.4813016814153230
  0.6950328065237281  0.8847473336327579  0.5186983045846756
  0.1950327981903870  0.4015215419255189  0.0186983295846815
  0.8049671838096185  0.5984784634078215  0.9813016954153244
  0.4015215282588311  0.3847473252994280  0.0186983295846815
  0.5984784497411592  0.6152526587005778  0.9813016954153244
  0.3847473329660957  0.1950328078570523  0.0186983295846815
  0.6152526663672377  0.8049671934762734  0.9813016954153244
  0.5702662221113461  0.3144542740232341  0.3168987506674736
  0.4297337872219880  0.6855457559767683  0.6831012113325312
  0.7983807645312786  0.5702662254446809  0.3168987506674736
  0.2016192628020504  0.4297337905553132  0.6831012113325312
  0.3144542566899088  0.7983807498645982  0.3168987506674736
  0.6855457386434243  0.2016192481354027  0.6831012113325312
  0.1855457223101004  0.9297337742219878  0.1831012603325313
  0.8144542393565585  0.0702662081113543  0.8168988026674699
  0.9297337708886525  0.7016192318020558  0.1831012603325313
  0.0702662047780089  0.2983807325312701  0.8168988026674699
  0.7016192464687088  0.1855457396434386  0.1831012603325313
  0.2983807471979472  0.8144542566899050  0.8168988026674699
  0.0807773139997533  0.7486654120646951  0.3290132609166854
  0.9192226643335755  0.2513345559353094  0.6709867900833295
  0.8415440130188656  0.0807773186664240  0.3290132609166854
  0.1584559899811369  0.9192226690002320  0.6709867900833295
  0.7486654270646989  0.8415439930188672  0.3290132609166854
  0.2513345709352936  0.1584559699811326  0.6709867900833295
  0.7513345846019673  0.4192226826669028  0.1709867490833155
  0.2486654390646972  0.5807773306664235  0.8290132249166824
  0.4192226780002491  0.6584559836478034  0.1709867490833155
  0.5807773259997502  0.3415440050188703  0.8290132249166824
  0.6584560036478031  0.7513345696019817  0.1709867490833155
  0.3415440250188737  0.2486654240646881  0.8290132249166824
  0.9600432649775829  0.9600432449775812  0.1198702350672458
  0.0399567723557533  0.0399567523557445  0.8801297129327493
  0.5399567523557448  0.5399567323557432  0.3801297729327546
  0.4600432526442526  0.4600432326442510  0.6198702720672459
  0.2500000123333308  0.2499999923333291  0.2499999930000030
  0.7499999799999983  0.7500000200000017  0.7500000000000000
  0.9068784866395788  0.9068784666395843  0.2793645700812461
  0.0931215456937471  0.0931215256937525  0.7206353929187544
  0.5931215306937488  0.5931215106937472  0.2206354379187545
  0.4068784693062508  0.4068784493062492  0.7793646220812503
  0.3079786961703028  0.3000132009204212  0.3217568017963061
  0.6920213261630279  0.6999868214129104  0.6782431832036965
  0.0702513134463009  0.3079786788369629  0.3217568017963061
  0.9297486965537002  0.6920213088296916  0.6782431832036965
  0.3000131835870859  0.0702513084463090  0.3217568017963061
  0.6999868040795832  0.9297486915536910  0.6782431832036965
  0.1999867954129105  0.1920213001630242  0.1782432092036984
  0.8000131785870874  0.8079786738369666  0.8217568167963035
  0.1920213174963521  0.4297486828870306  0.1782432092036984
  0.8079786911703083  0.5702513034463120  0.8217568167963035
  0.4297486878870257  0.1999868127462506  0.1782432092036984
  0.5702513084463040  0.8000131959204169  0.8217568167963035
  0.3559400269166386  0.3820842393950768  0.4187280065827665
  0.6440599480833559  0.6179157256049310  0.5812720384172329
  0.8432477074388558  0.3559400369166360  0.4187280065827665
  0.1567522678944691  0.6440599580833536  0.5812720384172329
  0.3820842593950697  0.8432477171055210  0.4187280065827665
  0.6179157456049198  0.1567522775611454  0.5812720384172329
  0.1179157576049390  0.1440599700833674  0.0812720024172379
  0.8820842793950606  0.8559400569166449  0.9187279465827695
  0.1440599600833523  0.6567522895611462  0.0812720024172379
  0.8559400469166443  0.3432477371055224  0.9187279465827695
  0.6567522798944705  0.1179157376049325  0.0812720024172379
  0.3432477274388702  0.8820842593950777  0.9187279465827695
 
  0.00000000E+00  0.00000000E+00  0.00000000E+00
  0.00000000E+00  0.00000000E+00  0.00000000E+00
  0.00000000E+00  0.00000000E+00  0.00000000E+00
  0.00000000E+00  0.00000000E+00  0.00000000E+00
  0.00000000E+00  0.00000000E+00  0.00000000E+00
  0.00000000E+00  0.00000000E+00  0.00000000E+00
  0.00000000E+00  0.00000000E+00  0.00000000E+00
  0.00000000E+00  0.00000000E+00  0.00000000E+00
  0.00000000E+00  0.00000000E+00  0.00000000E+00
  0.00000000E+00  0.00000000E+00  0.00000000E+00
  0.00000000E+00  0.00000000E+00  0.00000000E+00
  0.00000000E+00  0.00000000E+00  0.00000000E+00
  0.00000000E+00  0.00000000E+00  0.00000000E+00
  0.00000000E+00  0.00000000E+00  0.00000000E+00
  0.00000000E+00  0.00000000E+00  0.00000000E+00
  0.00000000E+00  0.00000000E+00  0.00000000E+00
  0.00000000E+00  0.00000000E+00  0.00000000E+00
  0.00000000E+00  0.00000000E+00  0.00000000E+00
  0.00000000E+00  0.00000000E+00  0.00000000E+00
  0.00000000E+00  0.00000000E+00  0.00000000E+00
  0.00000000E+00  0.00000000E+00  0.00000000E+00
  0.00000000E+00  0.00000000E+00  0.00000000E+00
  0.00000000E+00  0.00000000E+00  0.00000000E+00
  0.00000000E+00  0.00000000E+00  0.00000000E+00
  0.00000000E+00  0.00000000E+00  0.00000000E+00
  0.00000000E+00  0.00000000E+00  0.00000000E+00
  0.00000000E+00  0.00000000E+00  0.00000000E+00
  0.00000000E+00  0.00000000E+00  0.00000000E+00
  0.00000000E+00  0.00000000E+00  0.00000000E+00
  0.00000000E+00  0.00000000E+00  0.00000000E+00
  0.00000000E+00  0.00000000E+00  0.00000000E+00
  0.00000000E+00  0.00000000E+00  0.00000000E+00
  0.00000000E+00  0.00000000E+00  0.00000000E+00
  0.00000000E+00  0.00000000E+00  0.00000000E+00
  0.00000000E+00  0.00000000E+00  0.00000000E+00
  0.00000000E+00  0.00000000E+00  0.00000000E+00
  0.00000000E+00  0.00000000E+00  0.00000000E+00
  0.00000000E+00  0.00000000E+00  0.00000000E+00
  0.00000000E+00  0.00000000E+00  0.00000000E+00
  0.00000000E+00  0.00000000E+00  0.00000000E+00
  0.00000000E+00  0.00000000E+00  0.00000000E+00
  0.00000000E+00  0.00000000E+00  0.00000000E+00
  0.00000000E+00  0.00000000E+00  0.00000000E+00
  0.00000000E+00  0.00000000E+00  0.00000000E+00
  0.00000000E+00  0.00000000E+00  0.00000000E+00
  0.00000000E+00  0.00000000E+00  0.00000000E+00
  0.00000000E+00  0.00000000E+00  0.00000000E+00
  0.00000000E+00  0.00000000E+00  0.00000000E+00
  0.00000000E+00  0.00000000E+00  0.00000000E+00
  0.00000000E+00  0.00000000E+00  0.00000000E+00
  0.00000000E+00  0.00000000E+00  0.00000000E+00
  0.00000000E+00  0.00000000E+00  0.00000000E+00
  0.00000000E+00  0.00000000E+00  0.00000000E+00
  0.00000000E+00  0.00000000E+00  0.00000000E+00
  0.00000000E+00  0.00000000E+00  0.00000000E+00
  0.00000000E+00  0.00000000E+00  0.00000000E+00
  0.00000000E+00  0.00000000E+00  0.00000000E+00
  0.00000000E+00  0.00000000E+00  0.00000000E+00
  0.00000000E+00  0.00000000E+00  0.00000000E+00
  0.00000000E+00  0.00000000E+00  0.00000000E+00
  0.00000000E+00  0.00000000E+00  0.00000000E+00
  0.00000000E+00  0.00000000E+00  0.00000000E+00
  0.00000000E+00  0.00000000E+00  0.00000000E+00
  0.00000000E+00  0.00000000E+00  0.00000000E+00
  0.00000000E+00  0.00000000E+00  0.00000000E+00
  0.00000000E+00  0.00000000E+00  0.00000000E+00
  0.00000000E+00  0.00000000E+00  0.00000000E+00
  0.00000000E+00  0.00000000E+00  0.00000000E+00
  0.00000000E+00  0.00000000E+00  0.00000000E+00
  0.00000000E+00  0.00000000E+00  0.00000000E+00
  0.00000000E+00  0.00000000E+00  0.00000000E+00
  0.00000000E+00  0.00000000E+00  0.00000000E+00
  0.00000000E+00  0.00000000E+00  0.00000000E+00
  0.00000000E+00  0.00000000E+00  0.00000000E+00
  0.00000000E+00  0.00000000E+00  0.00000000E+00
  0.00000000E+00  0.00000000E+00  0.00000000E+00
  0.00000000E+00  0.00000000E+00  0.00000000E+00
  0.00000000E+00  0.00000000E+00  0.00000000E+00
  0.00000000E+00  0.00000000E+00  0.00000000E+00
  0.00000000E+00  0.00000000E+00  0.00000000E+00
  0.00000000E+00  0.00000000E+00  0.00000000E+00
  0.00000000E+00  0.00000000E+00  0.00000000E+00
  0.00000000E+00  0.00000000E+00  0.00000000E+00
  0.00000000E+00  0.00000000E+00  0.00000000E+00
  0.00000000E+00  0.00000000E+00  0.00000000E+00
  0.00000000E+00  0.00000000E+00  0.00000000E+00
  0.00000000E+00  0.00000000E+00  0.00000000E+00
  0.00000000E+00  0.00000000E+00  0.00000000E+00
  0.00000000E+00  0.00000000E+00  0.00000000E+00
  0.00000000E+00  0.00000000E+00  0.00000000E+00
  0.00000000E+00  0.00000000E+00  0.00000000E+00
  0.00000000E+00  0.00000000E+00  0.00000000E+00
  0.00000000E+00  0.00000000E+00  0.00000000E+00
  0.00000000E+00  0.00000000E+00  0.00000000E+00
  0.00000000E+00  0.00000000E+00  0.00000000E+00
  0.00000000E+00  0.00000000E+00  0.00000000E+00
  0.00000000E+00  0.00000000E+00  0.00000000E+00
  0.00000000E+00  0.00000000E+00  0.00000000E+00
  0.00000000E+00  0.00000000E+00  0.00000000E+00
  0.00000000E+00  0.00000000E+00  0.00000000E+00
  0.00000000E+00  0.00000000E+00  0.00000000E+00
  0.00000000E+00  0.00000000E+00  0.00000000E+00
  0.00000000E+00  0.00000000E+00  0.00000000E+00
  0.00000000E+00  0.00000000E+00  0.00000000E+00
  0.00000000E+00  0.00000000E+00  0.00000000E+00
  0.00000000E+00  0.00000000E+00  0.00000000E+00
  0.00000000E+00  0.00000000E+00  0.00000000E+00
  0.00000000E+00  0.00000000E+00  0.00000000E+00
  0.00000000E+00  0.00000000E+00  0.00000000E+00
  0.00000000E+00  0.00000000E+00  0.00000000E+00
  0.00000000E+00  0.00000000E+00  0.00000000E+00
  0.00000000E+00  0.00000000E+00  0.00000000E+00
  0.00000000E+00  0.00000000E+00  0.00000000E+00
  0.00000000E+00  0.00000000E+00  0.00000000E+00
  0.00000000E+00  0.00000000E+00  0.00000000E+00
  0.00000000E+00  0.00000000E+00  0.00000000E+00
  0.00000000E+00  0.00000000E+00  0.00000000E+00
  0.00000000E+00  0.00000000E+00  0.00000000E+00
  0.00000000E+00  0.00000000E+00  0.00000000E+00
  0.00000000E+00  0.00000000E+00  0.00000000E+00
  0.00000000E+00  0.00000000E+00  0.00000000E+00
  0.00000000E+00  0.00000000E+00  0.00000000E+00
  0.00000000E+00  0.00000000E+00  0.00000000E+00
  0.00000000E+00  0.00000000E+00  0.00000000E+00
  0.00000000E+00  0.00000000E+00  0.00000000E+00
  0.00000000E+00  0.00000000E+00  0.00000000E+00
  0.00000000E+00  0.00000000E+00  0.00000000E+00
  0.00000000E+00  0.00000000E+00  0.00000000E+00
  0.00000000E+00  0.00000000E+00  0.00000000E+00
  0.00000000E+00  0.00000000E+00  0.00000000E+00
  0.00000000E+00  0.00000000E+00  0.00000000E+00
  0.00000000E+00  0.00000000E+00  0.00000000E+00
  0.00000000E+00  0.00000000E+00  0.00000000E+00
  0.00000000E+00  0.00000000E+00  0.00000000E+00
  0.00000000E+00  0.00000000E+00  0.00000000E+00
  0.00000000E+00  0.00000000E+00  0.00000000E+00
  0.00000000E+00  0.00000000E+00  0.00000000E+00
  0.00000000E+00  0.00000000E+00  0.00000000E+00
  0.00000000E+00  0.00000000E+00  0.00000000E+00
  0.00000000E+00  0.00000000E+00  0.00000000E+00
  0.00000000E+00  0.00000000E+00  0.00000000E+00
  0.00000000E+00  0.00000000E+00  0.00000000E+00
