ISTART   = 1
ICHARG   = 11
ISMEAR   = 0 
SIGMA    = 0.02
EDIFF    = 0.1E-06
EDIFFG   = -1e-2
IBRION   = 0
NSW      = 0 
ISIF     = 0 
NELMIN   = 5
NELM     = 120
LSORBIT  = .TRUE.
MAGMOM   = 12*0
LWAVE    = .FALSE.
LCHARG   = .FALSE.
LORBIT   = 11
LMAXMIX  = 4
AMIX     = 0.1
BMIX     = 0.0001 
AMIX_MAG = 0.4
BMIX_MAG = 0.0001
