Y Sn Pt Li                              
   1.00000000000000     
     0.0000000000000000    3.3681598291240786    3.3681598291240786
     3.3681598291240786    0.0000000000000000    3.3681598291240786
     3.3681598291240786    3.3681598291240786    0.0000000000000000
   Li   Pt   Sn   Y 
     1     1     1     1
Direct
  0.7500005423000005  0.7500005423000005  0.7500005423000005
  0.2499996856000024  0.2499996856000024  0.2499996856000024
  0.5000008566999981  0.5000008566999981  0.5000008566999981
  0.0000000000000000  0.0000000000000000  0.0000000000000000
 
  0.00000000E+00  0.00000000E+00  0.00000000E+00
  0.00000000E+00  0.00000000E+00  0.00000000E+00
  0.00000000E+00  0.00000000E+00  0.00000000E+00
  0.00000000E+00  0.00000000E+00  0.00000000E+00
