Ni Al                                   
   1.00000000000000     
     2.8333249999999999    0.0000000000000000    0.0000000000000000
     0.0000000000000000    2.8333249999999999    0.0000000000000000
     0.0000000000000000    0.0000000000000000    2.8333249999999999
   Al   Ni
     1     1
Direct
  0.0000000000000000  0.0000000000000000  0.0000000000000000
  0.4999990482999976  0.4999990482999976  0.4999990482999976
 
  0.00000000E+00  0.00000000E+00  0.00000000E+00
  0.00000000E+00  0.00000000E+00  0.00000000E+00
