#= General Settings =#
  PREC = ACC
  ISTART = 0
  ICHARG = 1
  ISPIN = 2
  MAGMOM = 1*0.0000 1*5.0000

#= Parallelization =#

#= Ionic Relaxation Settings =#
  NSW = 0
  IBRION = -1
  ISIF = 2
  POTIM = 0.5

#= Electronic Relxation Settings =#
  ENCUT = 650
  NELM = 60
  NELMIN = 5
  LREAL = .FALSE.
  EDIFF = 0.0001
  ALGO = NORMAL

#= Write flags =#
  LCHARG = .TRUE.
  LWAVE = .FALSE.
  LVTOT = .TRUE.

#= DOS =#
  NBANDS = 13
  ISMEAR = -5
  SIGMA = 0.2
