Ni Al
 1.0
2.833325 0.000000 0.000000
0.000000 2.833325 0.000000
0.000000 0.000000 2.833325
Al Ni
1 1
direct
 0.0000000000 0.0000000000 0.0000000000
 0.4999990483 0.4999990483 0.4999990483
